* ENCODING=ISO-8859-1
NAME          CPLEX
ROWS
 N  obj1    
 G  c1      
 G  c2      
 G  c3      
 G  c4      
 G  c5      
 G  c6      
 G  c7      
 G  c8      
 G  c9      
 G  c10     
 G  c11     
 G  c12     
 G  c13     
 G  c14     
 G  c15     
 G  c16     
 G  c17     
 G  c18     
 G  c19     
 G  c20     
 G  c21     
 G  c22     
 G  c23     
 G  c24     
 G  c25     
COLUMNS
    MARK0000  'MARKER'                 'INTORG'
    x1        obj1                            1
    x1        c17                           930
    x1        c19                           669
    x2        obj1                            1
    x2        c4                            857
    x2        c16                           256
    x2        c25                           940
    x3        obj1                            1
    x3        c4                            394
    x3        c11                           625
    x3        c14                           960
    x3        c20                           914
    x3        c23                           274
    x4        obj1                            1
    x5        obj1                            1
    x5        c22                           402
    x6        obj1                            1
    x6        c15                           120
    x7        obj1                            1
    x7        c1                            696
    x7        c5                            722
    x8        obj1                            1
    x8        c14                           612
    x9        obj1                            1
    x9        c1                            907
    x9        c11                           359
    x9        c12                           211
    x10       obj1                            1
    x10       c3                            966
    x10       c20                           906
    x11       obj1                            1
    x11       c3                            798
    x11       c7                            751
    x11       c13                           554
    x12       obj1                            1
    x12       c7                            449
    x12       c11                           911
    x12       c17                           451
    x12       c21                           893
    x13       obj1                            1
    x13       c12                           132
    x13       c17                           192
    x14       obj1                            1
    x14       c24                           402
    x15       obj1                            1
    x15       c3                            780
    x15       c12                           697
    x15       c13                           109
    x15       c16                           505
    x15       c19                           314
    x15       c21                           362
    x15       c22                           543
    x15       c23                           221
    x15       c25                           928
    x16       obj1                            1
    x16       c12                           209
    x17       obj1                            1
    x17       c21                           202
    x18       obj1                            1
    x18       c3                            197
    x18       c4                            761
    x18       c6                            730
    x18       c13                           528
    x19       obj1                            1
    x19       c6                            712
    x20       obj1                            1
    x20       c4                            595
    x20       c12                           767
    x20       c13                           411
    x20       c24                           859
    x21       obj1                            1
    x21       c8                            269
    x21       c10                           843
    x21       c16                           446
    x21       c18                           799
    x21       c19                           427
    x22       obj1                            1
    x22       c4                            223
    x22       c9                            130
    x22       c11                           743
    x23       obj1                            1
    x24       obj1                            1
    x24       c2                            299
    x24       c20                           543
    x24       c22                           428
    x25       obj1                            1
    x25       c10                           794
    x25       c22                           516
    x25       c23                           178
    x26       obj1                            1
    x26       c22                           121
    x27       obj1                            1
    x27       c2                            135
    x27       c14                           429
    x28       obj1                            1
    x28       c4                            865
    x28       c14                           617
    x29       obj1                            1
    x29       c16                           597
    x29       c24                           239
    x30       obj1                            1
    x30       c13                           639
    x30       c19                           248
    x31       obj1                            1
    x31       c11                           697
    x31       c16                           557
    x31       c24                           388
    x32       obj1                            1
    x32       c7                            818
    x32       c8                            644
    x32       c23                           566
    x33       obj1                            1
    x33       c7                            588
    x33       c19                           326
    x33       c25                           639
    x34       obj1                            1
    x34       c1                            682
    x34       c9                            202
    x34       c25                           672
    x35       obj1                            1
    x35       c7                            100
    x35       c17                           161
    x35       c23                           256
    x36       obj1                            1
    x36       c6                            665
    x36       c9                            946
    x36       c17                           751
    x37       obj1                            1
    x37       c8                            642
    x37       c12                           661
    x37       c17                           736
    x37       c18                           950
    x38       obj1                            1
    x38       c3                            876
    x38       c5                            768
    x38       c13                           121
    x39       obj1                            1
    x39       c18                           284
    x39       c25                           569
    x40       obj1                            1
    x40       c19                           796
    x40       c24                           508
    x40       c25                           684
    x41       obj1                            1
    x41       c10                           525
    x41       c13                           783
    x41       c15                           889
    x41       c25                           900
    x42       obj1                            1
    x42       c6                            149
    x43       obj1                            1
    x44       obj1                            1
    x44       c2                            278
    x44       c6                            317
    x44       c16                           656
    x44       c19                           551
    x44       c24                           667
    x45       obj1                            1
    x45       c5                            388
    x45       c6                            413
    x45       c9                            713
    x45       c17                           840
    x46       obj1                            1
    x46       c15                           517
    x46       c20                           968
    x47       obj1                            1
    x47       c4                            533
    x47       c5                            222
    x47       c18                           932
    x48       obj1                            1
    x49       obj1                            1
    x50       obj1                            1
    x50       c8                            821
    x50       c21                           382
    x50       c22                           501
    x50       c24                           589
    MARK0001  'MARKER'                 'INTEND'
RHS
    rhs       c1                           1143
    rhs       c2                            356
    rhs       c3                           1809
    rhs       c4                           2114
    rhs       c5                           1050
    rhs       c6                           1493
    rhs       c7                           1353
    rhs       c8                           1188
    rhs       c9                            996
    rhs       c10                          1081
    rhs       c11                          1668
    rhs       c12                          1339
    rhs       c13                          1573
    rhs       c14                          1309
    rhs       c15                           763
    rhs       c16                          1509
    rhs       c17                          2031
    rhs       c18                          1483
    rhs       c19                          1666
    rhs       c20                          1666
    rhs       c21                           920
    rhs       c22                          1256
    rhs       c23                           748
    rhs       c24                          1826
    rhs       c25                          2666
BOUNDS
 LI bnd       x1        0
 LI bnd       x2        0
 LI bnd       x3        0
 LI bnd       x4        0
 LI bnd       x5        0
 LI bnd       x6        0
 LI bnd       x7        0
 LI bnd       x8        0
 LI bnd       x9        0
 LI bnd       x10       0
 LI bnd       x11       0
 LI bnd       x12       0
 LI bnd       x13       0
 LI bnd       x14       0
 LI bnd       x15       0
 LI bnd       x16       0
 LI bnd       x17       0
 LI bnd       x18       0
 LI bnd       x19       0
 LI bnd       x20       0
 LI bnd       x21       0
 LI bnd       x22       0
 LI bnd       x23       0
 LI bnd       x24       0
 LI bnd       x25       0
 LI bnd       x26       0
 LI bnd       x27       0
 LI bnd       x28       0
 LI bnd       x29       0
 LI bnd       x30       0
 LI bnd       x31       0
 LI bnd       x32       0
 LI bnd       x33       0
 LI bnd       x34       0
 LI bnd       x35       0
 LI bnd       x36       0
 LI bnd       x37       0
 LI bnd       x38       0
 LI bnd       x39       0
 LI bnd       x40       0
 LI bnd       x41       0
 LI bnd       x42       0
 LI bnd       x43       0
 LI bnd       x44       0
 LI bnd       x45       0
 LI bnd       x46       0
 LI bnd       x47       0
 LI bnd       x48       0
 LI bnd       x49       0
 LI bnd       x50       0
ENDATA
